33D32945 STP File, STP Format Version 1.0

SECTION Comments
Name "edge_n13_d2_s17"
Problem "Euclidean Steiner Tree Problem"
Remark "Generated with STPGenerator. 2 dimensions."
END

SECTION Graph
Nodes 13
END

SECTION Coordinates
DD 0 0.5717940003 0.5717940003
DD 1 0.0018524737 0.0018524737
DD 2 0.1227083798 0.1227083798
DD 3 0.9171544332 0.9171544332
DD 4 0.8540148287 0.8540148287
DD 5 0.2275495600 0.2275495600
DD 6 0.1078885724 0.1078885724
DD 7 0.4860870128 0.4860870128
DD 8 0.6620165676 0.6620165676
DD 9 0.9043156765 0.9043156765
DD 10 0.6258278161 0.6258278161
DD 11 0.2151280480 0.2151280480
DD 12 0.2804932088 0.2804932088
END
